objective value:                                10424
t_x_2                                               1 	(obj:36)
t_x_3                                               1 	(obj:11)
t_x_4                                               1 	(obj:4)
t_x_7                                               1 	(obj:18)
t_x_13                                              1 	(obj:20)
t_x_14                                              1 	(obj:11)
t_x_15                                              1 	(obj:58)
t_x_16                                              1 	(obj:0)
t_x_19                                              1 	(obj:21)
t_x_20                                              1 	(obj:34)
t_x_25                                              1 	(obj:8)
t_x_26                                              1 	(obj:5)
t_x_29                                              1 	(obj:6)
t_x_32                                              1 	(obj:29)
t_x_33                                              1 	(obj:39)
t_x_34                                              1 	(obj:3)
t_x_36                                              1 	(obj:18)
t_x_39                                              1 	(obj:2)
t_x_42                                              1 	(obj:19)
t_x_43                                              1 	(obj:7)
t_x_44                                              1 	(obj:32)
t_x_45                                              1 	(obj:28)
t_x_47                                              1 	(obj:36)
t_x_48                                              1 	(obj:16)
t_x_49                                              1 	(obj:14)
t_x_50                                              1 	(obj:40)
t_x_53                                              1 	(obj:6)
t_x_56                                              1 	(obj:22)
t_x_57                                              1 	(obj:1)
t_x_66                                              1 	(obj:38)
t_x_74                                              1 	(obj:16)
t_x_87                                              1 	(obj:15)
t_x_91                                              1 	(obj:25)
t_x_92                                              1 	(obj:2)
t_x_96                                              1 	(obj:12)
t_x_99                                              1 	(obj:42)
t_x_101                                             1 	(obj:10)
t_x_102                                             1 	(obj:37)
t_x_103                                             1 	(obj:14)
t_x_104                                             1 	(obj:26)
t_x_106                                             1 	(obj:11)
t_x_109                                             1 	(obj:52)
t_x_110                                             1 	(obj:19)
t_x_117                                             1 	(obj:33)
t_x_121                                             1 	(obj:48)
t_x_126                                             1 	(obj:0)
t_x_135                                             1 	(obj:6)
t_x_136                                             1 	(obj:14)
t_x_141                                             1 	(obj:15)
t_x_143                                             1 	(obj:10)
t_x_144                                             1 	(obj:34)
t_x_145                                             1 	(obj:31)
t_x_154                                             1 	(obj:0)
t_x_160                                             1 	(obj:13)
t_x_161                                             1 	(obj:12)
t_x_162                                             1 	(obj:21)
t_x_163                                             1 	(obj:13)
t_x_167                                             1 	(obj:45)
t_x_169                                             1 	(obj:6)
t_x_170                                             1 	(obj:18)
t_x_172                                             1 	(obj:38)
t_x_173                                             1 	(obj:2)
t_x_177                                             1 	(obj:28)
t_x_180                                             1 	(obj:48)
t_x_183                                             1 	(obj:18)
t_x_188                                             1 	(obj:19)
t_x_193                                             1 	(obj:41)
t_x_194                                             1 	(obj:30)
t_x_195                                             1 	(obj:52)
t_x_196                                             1 	(obj:26)
t_x_199                                             1 	(obj:9)
t_x_203                                             1 	(obj:0)
t_x_205                                             1 	(obj:6)
t_x_211                                             1 	(obj:2)
t_x_212                                             1 	(obj:0)
t_x_213                                             1 	(obj:2)
t_x_216                                             1 	(obj:15)
t_x_217                                             1 	(obj:30)
t_x_225                                             1 	(obj:0)
t_x_228                                             1 	(obj:1)
t_x_230                                             1 	(obj:9)
t_x_238                                             1 	(obj:6)
t_x_245                                             1 	(obj:19)
t_x_247                                             1 	(obj:24)
t_x_248                                             1 	(obj:25)
t_x_249                                             1 	(obj:58)
t_x_251                                             1 	(obj:21)
t_x_261                                             1 	(obj:14)
t_x_262                                             1 	(obj:24)
t_x_263                                             1 	(obj:14)
t_x_270                                             1 	(obj:8)
t_x_278                                             1 	(obj:1)
t_x_280                                             1 	(obj:33)
t_x_282                                             1 	(obj:21)
t_x_285                                             1 	(obj:26)
t_x_287                                             1 	(obj:2)
t_x_288                                             1 	(obj:26)
t_x_295                                             1 	(obj:29)
t_x_297                                             1 	(obj:5)
t_x_298                                             1 	(obj:13)
t_x_299                                             1 	(obj:5)
t_x_305                                             1 	(obj:22)
t_x_306                                             1 	(obj:15)
t_x_307                                             1 	(obj:8)
t_x_312                                             1 	(obj:17)
t_x_315                                             1 	(obj:19)
t_x_318                                             1 	(obj:3)
t_x_320                                             1 	(obj:17)
t_x_321                                             1 	(obj:22)
t_x_327                                             1 	(obj:8)
t_x_328                                             1 	(obj:34)
t_x_332                                             1 	(obj:41)
t_x_333                                             1 	(obj:7)
t_x_338                                             1 	(obj:10)
t_x_344                                             1 	(obj:23)
t_x_348                                             1 	(obj:22)
t_x_352                                             1 	(obj:5)
t_x_355                                             1 	(obj:15)
t_x_358                                             1 	(obj:0)
t_x_361                                             1 	(obj:24)
t_x_363                                             1 	(obj:25)
t_x_365                                             1 	(obj:40)
t_x_368                                             1 	(obj:4)
t_x_370                                             1 	(obj:9)
t_x_372                                             1 	(obj:3)
t_x_373                                             1 	(obj:0)
t_x_376                                             1 	(obj:11)
t_x_386                                             1 	(obj:22)
t_x_389                                             1 	(obj:5)
t_x_392                                             1 	(obj:4)
t_x_393                                             1 	(obj:13)
t_x_397                                             1 	(obj:14)
t_x_398                                             1 	(obj:13)
t_x_403                                             1 	(obj:3)
t_x_410                                             1 	(obj:1)
t_x_413                                             1 	(obj:11)
t_x_418                                             1 	(obj:35)
t_x_426                                             1 	(obj:35)
t_x_428                                             1 	(obj:30)
t_x_431                                             1 	(obj:1)
t_x_436                                             1 	(obj:12)
t_x_443                                             1 	(obj:23)
t_x_446                                             1 	(obj:32)
t_x_452                                             1 	(obj:12)
t_x_455                                             1 	(obj:12)
t_x_460                                             1 	(obj:9)
t_x_461                                             1 	(obj:6)
t_x_462                                             1 	(obj:13)
t_x_464                                             1 	(obj:21)
t_x_467                                             1 	(obj:32)
t_x_471                                             1 	(obj:20)
t_x_475                                             1 	(obj:18)
t_x_476                                             1 	(obj:22)
t_x_480                                             1 	(obj:43)
t_x_485                                             1 	(obj:75)
t_x_486                                             1 	(obj:19)
t_x_487                                             1 	(obj:13)
t_x_489                                             1 	(obj:25)
t_x_491                                             1 	(obj:2)
t_x_497                                             1 	(obj:23)
t_x_502                                             1 	(obj:11)
t_x_504                                             1 	(obj:1)
t_x_507                                             1 	(obj:49)
t_x_518                                             1 	(obj:16)
t_x_519                                             1 	(obj:24)
t_x_520                                             1 	(obj:0)
t_x_521                                             1 	(obj:20)
t_x_522                                             1 	(obj:34)
t_x_525                                             1 	(obj:0)
t_x_534                                             1 	(obj:14)
t_x_538                                             1 	(obj:35)
t_x_543                                             1 	(obj:22)
t_x_544                                             1 	(obj:16)
t_x_545                                             1 	(obj:33)
t_x_547                                             1 	(obj:13)
t_x_551                                             1 	(obj:32)
t_x_552                                             1 	(obj:24)
t_x_562                                             1 	(obj:7)
t_x_564                                             1 	(obj:25)
t_x_567                                             1 	(obj:8)
t_x_571                                             1 	(obj:5)
t_x_575                                             1 	(obj:13)
t_x_576                                             1 	(obj:27)
t_x_587                                             1 	(obj:19)
t_x_601                                             1 	(obj:13)
t_x_608                                             1 	(obj:13)
t_x_610                                             1 	(obj:34)
t_x_612                                             1 	(obj:2)
t_x_614                                             1 	(obj:11)
t_x_618                                             1 	(obj:17)
t_x_623                                             1 	(obj:26)
t_x_627                                             1 	(obj:7)
t_x_632                                             1 	(obj:4)
t_x_635                                             1 	(obj:0)
t_x_637                                             1 	(obj:5)
t_x_638                                             1 	(obj:29)
t_x_645                                             1 	(obj:4)
t_x_647                                             1 	(obj:2)
t_x_655                                             1 	(obj:1)
t_x_661                                             1 	(obj:33)
t_x_663                                             1 	(obj:17)
t_x_666                                             1 	(obj:16)
t_x_668                                             1 	(obj:1)
t_x_673                                             1 	(obj:8)
t_x_674                                             1 	(obj:53)
t_x_680                                             1 	(obj:11)
t_x_688                                             1 	(obj:7)
t_x_689                                             1 	(obj:12)
t_x_691                                             1 	(obj:5)
t_x_692                                             1 	(obj:28)
t_x_693                                             1 	(obj:0)
t_x_695                                             1 	(obj:7)
t_x_696                                             1 	(obj:17)
t_x_705                                             1 	(obj:19)
t_x_709                                             1 	(obj:7)
t_x_720                                             1 	(obj:17)
t_x_721                                             1 	(obj:11)
t_x_726                                             1 	(obj:17)
t_x_728                                             1 	(obj:27)
t_x_729                                             1 	(obj:21)
t_x_737                                             1 	(obj:16)
t_x_750                                             1 	(obj:6)
t_x_752                                             1 	(obj:15)
t_x_755                                             1 	(obj:2)
t_x_757                                             1 	(obj:0)
t_x_758                                             1 	(obj:14)
t_x_763                                             1 	(obj:39)
t_x_766                                             1 	(obj:4)
t_x_767                                             1 	(obj:36)
t_x_771                                             1 	(obj:41)
t_x_774                                             1 	(obj:14)
t_x_775                                             1 	(obj:0)
t_x_781                                             1 	(obj:7)
t_x_784                                             1 	(obj:16)
t_x_787                                             1 	(obj:52)
t_x_792                                             1 	(obj:18)
t_x_796                                             1 	(obj:15)
t_x_799                                             1 	(obj:35)
t_x_802                                             1 	(obj:33)
t_x_803                                             1 	(obj:7)
t_x_804                                             1 	(obj:12)
t_x_807                                             1 	(obj:25)
t_x_809                                             1 	(obj:14)
t_x_811                                             1 	(obj:10)
t_x_813                                             1 	(obj:28)
t_x_818                                             1 	(obj:52)
t_x_819                                             1 	(obj:35)
t_x_831                                             1 	(obj:32)
t_x_837                                             1 	(obj:11)
t_x_841                                             1 	(obj:0)
t_x_853                                             1 	(obj:1)
t_x_855                                             1 	(obj:2)
t_x_856                                             1 	(obj:26)
t_x_858                                             1 	(obj:27)
t_x_862                                             1 	(obj:0)
t_x_864                                             1 	(obj:14)
t_x_866                                             1 	(obj:11)
t_x_867                                             1 	(obj:27)
t_x_872                                             1 	(obj:29)
t_x_875                                             1 	(obj:37)
t_x_884                                             1 	(obj:3)
t_x_885                                             1 	(obj:12)
t_x_889                                             1 	(obj:14)
t_x_894                                             1 	(obj:1)
t_x_895                                             1 	(obj:18)
t_x_899                                             1 	(obj:8)
t_x_900                                             1 	(obj:8)
t_x_901                                             1 	(obj:27)
t_x_905                                             1 	(obj:14)
t_x_906                                             1 	(obj:0)
t_x_907                                             1 	(obj:11)
t_x_909                                             1 	(obj:5)
t_x_912                                             1 	(obj:7)
t_x_917                                             1 	(obj:21)
t_x_918                                             1 	(obj:4)
t_x_921                                             1 	(obj:25)
t_x_924                                             1 	(obj:30)
t_x_926                                             1 	(obj:3)
t_x_927                                             1 	(obj:68)
t_x_934                                             1 	(obj:6)
t_x_935                                             1 	(obj:0)
t_x_940                                             1 	(obj:21)
t_x_942                                             1 	(obj:16)
t_x_946                                             1 	(obj:16)
t_x_948                                             1 	(obj:13)
t_x_950                                             1 	(obj:16)
t_x_952                                             1 	(obj:11)
t_x_957                                             1 	(obj:8)
t_x_968                                             1 	(obj:27)
t_x_970                                             1 	(obj:2)
t_x_976                                             1 	(obj:6)
t_x_977                                             1 	(obj:13)
t_x_978                                             1 	(obj:11)
t_x_979                                             1 	(obj:7)
t_x_982                                             1 	(obj:0)
t_x_986                                             1 	(obj:23)
t_x_988                                             1 	(obj:5)
t_x_989                                             1 	(obj:24)
t_x_990                                             1 	(obj:3)
t_x_995                                             1 	(obj:0)
t_x_997                                             1 	(obj:0)
t_x_999                                             1 	(obj:22)
t_x_1001                                            1 	(obj:0)
t_x_1003                                            1 	(obj:18)
t_x_1005                                            1 	(obj:4)
t_x_1012                                            1 	(obj:43)
t_x_1018                                            1 	(obj:13)
t_x_1021                                            1 	(obj:22)
t_x_1023                                            1 	(obj:5)
t_x_1033                                            1 	(obj:13)
t_x_1037                                            1 	(obj:12)
t_x_1040                                            1 	(obj:41)
t_x_1041                                            1 	(obj:21)
t_x_1042                                            1 	(obj:8)
t_x_1043                                            1 	(obj:28)
t_x_1044                                            1 	(obj:0)
t_x_1046                                            1 	(obj:1)
t_x_1050                                            1 	(obj:48)
t_x_1051                                            1 	(obj:15)
t_x_1053                                            1 	(obj:0)
t_x_1055                                            1 	(obj:10)
t_x_1063                                            1 	(obj:3)
t_x_1070                                            1 	(obj:3)
t_x_1072                                            1 	(obj:48)
t_x_1075                                            1 	(obj:25)
t_x_1078                                            1 	(obj:36)
t_x_1079                                            1 	(obj:8)
t_x_1085                                            1 	(obj:10)
t_x_1088                                            1 	(obj:5)
t_x_1089                                            1 	(obj:10)
t_x_1094                                            1 	(obj:20)
t_x_1097                                            1 	(obj:9)
t_x_1114                                            1 	(obj:6)
t_x_1115                                            1 	(obj:1)
t_x_1118                                            1 	(obj:2)
t_x_1121                                            1 	(obj:30)
t_x_1127                                            1 	(obj:7)
t_x_1130                                            1 	(obj:26)
t_x_1139                                            1 	(obj:27)
t_x_1140                                            1 	(obj:0)
t_x_1143                                            1 	(obj:16)
t_x_1153                                            1 	(obj:7)
t_x_1156                                            1 	(obj:27)
t_x_1157                                            1 	(obj:15)
t_x_1171                                            1 	(obj:32)
t_x_1175                                            1 	(obj:24)
t_x_1176                                            1 	(obj:23)
t_x_1177                                            1 	(obj:13)
t_x_1180                                            1 	(obj:57)
t_x_1186                                            1 	(obj:19)
t_x_1189                                            1 	(obj:17)
t_x_1190                                            1 	(obj:57)
t_x_1193                                            1 	(obj:16)
t_x_1194                                            1 	(obj:3)
t_x_1195                                            1 	(obj:10)
t_x_1196                                            1 	(obj:7)
t_x_1200                                            1 	(obj:21)
t_x_1204                                            1 	(obj:8)
t_x_1205                                            1 	(obj:11)
t_x_1206                                            1 	(obj:20)
t_x_1207                                            1 	(obj:13)
t_x_1208                                            1 	(obj:27)
t_x_1209                                            1 	(obj:3)
t_x_1219                                            1 	(obj:16)
t_x_1220                                            1 	(obj:17)
t_x_1223                                            1 	(obj:15)
t_x_1225                                            1 	(obj:0)
t_x_1229                                            1 	(obj:7)
t_x_1232                                            1 	(obj:12)
t_x_1233                                            1 	(obj:15)
t_x_1234                                            1 	(obj:28)
t_x_1238                                            1 	(obj:30)
t_x_1241                                            1 	(obj:19)
t_x_1250                                            1 	(obj:53)
t_x_1256                                            1 	(obj:60)
t_x_1257                                            1 	(obj:19)
t_x_1259                                            1 	(obj:14)
t_x_1265                                            1 	(obj:7)
t_x_1270                                            1 	(obj:12)
t_x_1271                                            1 	(obj:1)
t_x_1272                                            1 	(obj:16)
t_x_1274                                            1 	(obj:8)
t_x_1276                                            1 	(obj:28)
t_x_1277                                            1 	(obj:31)
t_x_1282                                            1 	(obj:16)
t_x_1284                                            1 	(obj:11)
t_x_1291                                            1 	(obj:5)
t_x_1292                                            1 	(obj:13)
t_x_1296                                            1 	(obj:23)
t_x_1308                                            1 	(obj:4)
t_x_1314                                            1 	(obj:0)
t_x_1317                                            1 	(obj:24)
t_x_1321                                            1 	(obj:37)
t_x_1324                                            1 	(obj:6)
t_x_1326                                            1 	(obj:3)
t_x_1328                                            1 	(obj:0)
t_x_1330                                            1 	(obj:8)
t_x_1335                                            1 	(obj:6)
t_x_1339                                            1 	(obj:1)
t_x_1341                                            1 	(obj:17)
t_x_1342                                            1 	(obj:3)
t_x_1343                                            1 	(obj:14)
t_x_1346                                            1 	(obj:7)
t_x_1347                                            1 	(obj:2)
t_x_1348                                            1 	(obj:58)
t_x_1349                                            1 	(obj:7)
t_x_1353                                            1 	(obj:13)
t_x_1356                                            1 	(obj:39)
t_x_1360                                            1 	(obj:12)
t_x_1364                                            1 	(obj:29)
t_x_1368                                            1 	(obj:1)
t_x_1374                                            1 	(obj:23)
t_x_1376                                            1 	(obj:23)
t_x_1377                                            1 	(obj:60)
t_x_1381                                            1 	(obj:12)
t_x_1388                                            1 	(obj:11)
t_x_1392                                            1 	(obj:40)
t_x_1397                                            1 	(obj:8)
t_x_1403                                            1 	(obj:14)
t_x_1407                                            1 	(obj:3)
t_x_1408                                            1 	(obj:39)
t_x_1409                                            1 	(obj:14)
t_x_1411                                            1 	(obj:31)
t_x_1422                                            1 	(obj:33)
t_x_1427                                            1 	(obj:0)
t_x_1428                                            1 	(obj:36)
t_x_1429                                            1 	(obj:32)
t_x_1436                                            1 	(obj:4)
t_x_1439                                            1 	(obj:15)
t_x_1441                                            1 	(obj:42)
t_x_1442                                            1 	(obj:34)
t_x_1444                                            1 	(obj:9)
t_x_1448                                            1 	(obj:25)
t_x_1449                                            1 	(obj:0)
t_x_1451                                            1 	(obj:19)
t_x_1453                                            1 	(obj:21)
t_x_1460                                            1 	(obj:29)
t_x_1463                                            1 	(obj:8)
t_x_1465                                            1 	(obj:4)
t_x_1467                                            1 	(obj:36)
t_x_1473                                            1 	(obj:46)
t_x_1474                                            1 	(obj:58)
t_x_1479                                            1 	(obj:36)
t_x_1488                                            1 	(obj:34)
t_x_1490                                            1 	(obj:13)
t_x_1491                                            1 	(obj:8)
t_x_1493                                            1 	(obj:54)
t_x_1494                                            1 	(obj:34)
t_x_1495                                            1 	(obj:50)
t_x_1497                                            1 	(obj:13)
t_x_1499                                            1 	(obj:25)
t_x_1501                                            1 	(obj:12)
t_x_1503                                            1 	(obj:9)
t_x_1507                                            1 	(obj:8)
t_x_1508                                            1 	(obj:13)
t_x_1510                                            1 	(obj:28)
t_x_1528                                            1 	(obj:6)
t_x_1538                                            1 	(obj:7)
t_x_1540                                            1 	(obj:11)
t_x_1546                                            1 	(obj:57)
t_x_1550                                            1 	(obj:14)
t_x_1551                                            1 	(obj:5)
t_x_1552                                            1 	(obj:26)
t_x_1553                                            1 	(obj:8)
t_x_1556                                            1 	(obj:28)
t_x_1560                                            1 	(obj:5)
t_x_1571                                            1 	(obj:25)
t_x_1587                                            1 	(obj:21)
t_x_1588                                            1 	(obj:26)
t_x_1595                                            1 	(obj:10)
t_x_1601                                            1 	(obj:31)
t_x_1610                                            1 	(obj:34)
t_x_1615                                            1 	(obj:0)
t_x_1617                                            1 	(obj:4)
t_x_1620                                            1 	(obj:31)
t_x_1621                                            1 	(obj:19)
t_x_1624                                            1 	(obj:33)
t_x_1625                                            1 	(obj:22)
t_x_1629                                            1 	(obj:9)
t_x_1632                                            1 	(obj:1)
t_x_1635                                            1 	(obj:18)
t_x_1638                                            1 	(obj:3)
t_x_1640                                            1 	(obj:4)
t_x_1643                                            1 	(obj:21)
t_x_1646                                            1 	(obj:0)
t_x_1654                                            1 	(obj:6)
t_x_1657                                            1 	(obj:3)
t_x_1662                                            1 	(obj:3)
t_x_1666                                            1 	(obj:0)
t_x_1672                                            1 	(obj:25)
t_x_1674                                            1 	(obj:26)
t_x_1675                                            1 	(obj:17)
t_x_1678                                            1 	(obj:12)
t_x_1683                                            1 	(obj:16)
t_x_1684                                            1 	(obj:20)
t_x_1685                                            1 	(obj:11)
t_x_1688                                            1 	(obj:29)
t_x_1692                                            1 	(obj:3)
t_x_1693                                            1 	(obj:6)
t_x_1696                                            1 	(obj:8)
t_x_1704                                            1 	(obj:5)
t_x_1706                                            1 	(obj:24)
t_x_1707                                            1 	(obj:52)
t_x_1711                                            1 	(obj:6)
t_x_1721                                            1 	(obj:5)
t_x_1723                                            1 	(obj:19)
t_x_1725                                            1 	(obj:34)
t_x_1727                                            1 	(obj:18)
t_x_1728                                            1 	(obj:3)
t_x_1730                                            1 	(obj:21)
t_x_1731                                            1 	(obj:2)
t_x_1740                                            1 	(obj:5)
t_x_1741                                            1 	(obj:7)
t_x_1746                                            1 	(obj:25)
t_x_1749                                            1 	(obj:14)
t_x_1751                                            1 	(obj:33)
t_x_1754                                            1 	(obj:30)
t_x_1755                                            1 	(obj:7)
t_x_1763                                            1 	(obj:22)
t_x_1765                                            1 	(obj:35)
t_x_1768                                            1 	(obj:29)
t_x_1769                                            1 	(obj:26)
t_x_1770                                            1 	(obj:20)
t_x_1773                                            1 	(obj:4)
t_x_1778                                            1 	(obj:12)
t_x_1780                                            1 	(obj:30)
t_x_1784                                            1 	(obj:31)
t_x_1785                                            1 	(obj:14)
t_x_1787                                            1 	(obj:55)
t_x_1790                                            1 	(obj:54)
t_x_1798                                            1 	(obj:9)
t_x_1799                                            1 	(obj:20)
t_x_1809                                            1 	(obj:9)
t_x_1811                                            1 	(obj:2)
t_x_1815                                            1 	(obj:5)
t_x_1818                                            1 	(obj:6)
t_x_1820                                            1 	(obj:4)
t_x_1822                                            1 	(obj:28)
t_x_1823                                            1 	(obj:3)
t_x_1844                                            1 	(obj:5)
t_x_1845                                            1 	(obj:9)
t_x_1846                                            1 	(obj:2)
t_x_1851                                            1 	(obj:6)
t_x_1852                                            1 	(obj:22)
t_x_1853                                            1 	(obj:4)
t_x_1854                                            1 	(obj:1)
t_x_1855                                            1 	(obj:4)
t_x_1856                                            1 	(obj:9)
t_x_1861                                            1 	(obj:2)
t_x_1863                                            1 	(obj:4)
t_x_1864                                            1 	(obj:9)
t_x_1866                                            1 	(obj:2)
t_x_1873                                            1 	(obj:4)
t_x_1882                                            1 	(obj:16)
t_x_1883                                            1 	(obj:12)
t_x_1884                                            1 	(obj:0)
t_x_1887                                            1 	(obj:10)
t_x_1889                                            1 	(obj:16)
t_x_1896                                            1 	(obj:23)
t_x_1897                                            1 	(obj:28)
t_x_1898                                            1 	(obj:57)
t_x_1900                                            1 	(obj:16)
t_x_1901                                            1 	(obj:13)
t_x_1905                                            1 	(obj:19)
t_x_1906                                            1 	(obj:31)
t_x_1907                                            1 	(obj:23)
t_x_1908                                            1 	(obj:41)
t_x_1910                                            1 	(obj:36)
t_x_1913                                            1 	(obj:22)
t_x_1915                                            1 	(obj:33)
t_x_1919                                            1 	(obj:12)
t_x_1921                                            1 	(obj:1)
t_x_1923                                            1 	(obj:0)
t_x_1928                                            1 	(obj:10)
t_x_1932                                            1 	(obj:1)
t_x_1935                                            1 	(obj:37)
t_x_1936                                            1 	(obj:51)
t_x_1937                                            1 	(obj:33)
t_x_1940                                            1 	(obj:6)
t_x_1941                                            1 	(obj:28)
t_x_1950                                            1 	(obj:17)
t_x_1954                                            1 	(obj:25)
t_x_1958                                            1 	(obj:26)
t_x_1959                                            1 	(obj:32)
t_x_1966                                            1 	(obj:7)
t_x_1968                                            1 	(obj:49)
t_x_1969                                            1 	(obj:12)
t_x_1971                                            1 	(obj:34)
t_x_1973                                            1 	(obj:37)
t_x_1976                                            1 	(obj:11)
t_x_1977                                            1 	(obj:1)
t_x_1981                                            1 	(obj:44)
t_x_1988                                            1 	(obj:4)
t_x_1990                                            1 	(obj:2)
t_x_1993                                            1 	(obj:19)
